(set-logic QF_LRA)
(declare-fun X0 () Real )
(declare-fun Y0 () Real )
(declare-fun X1 () Real )
(declare-fun Y1 () Real )
(declare-fun X2 () Real )
(declare-fun Y2 () Real )
(declare-fun X3 () Real )
(declare-fun Y3 () Real )
(declare-fun X4 () Real )
(declare-fun Y4 () Real )
(declare-fun X5 () Real )
(declare-fun Y5 () Real )
(declare-fun Z () Real )
(declare-fun k () Real )
(assert (let
(( $goal (>= Z k) ))
(let
((
$phi ( and 
( or ( <= ( + X0 36 ) X1 )  ( <= ( + X1 79 ) X0 )  ( <= ( + Y0 46 ) Y1 )  ( <= ( + Y1 29 ) Y0 )  )
( or ( <= ( + X0 36 ) X2 )  ( <= ( + X2 13 ) X0 )  ( <= ( + Y0 46 ) Y2 )  ( <= ( + Y2 95 ) Y0 )  )
( or ( <= ( + X0 36 ) X3 )  ( <= ( + X3 91 ) X0 )  ( <= ( + Y0 46 ) Y3 )  ( <= ( + Y3 38 ) Y0 )  )
( or ( <= ( + X0 36 ) X4 )  ( <= ( + X4 9 ) X0 )  ( <= ( + Y0 46 ) Y4 )  ( <= ( + Y4 64 ) Y0 )  )
( or ( <= ( + X0 36 ) X5 )  ( <= ( + X5 24 ) X0 )  ( <= ( + Y0 46 ) Y5 )  ( <= ( + Y5 65 ) Y0 )  )
( or ( <= ( + X1 79 ) X2 )  ( <= ( + X2 13 ) X1 )  ( <= ( + Y1 29 ) Y2 )  ( <= ( + Y2 95 ) Y1 )  )
( or ( <= ( + X1 79 ) X3 )  ( <= ( + X3 91 ) X1 )  ( <= ( + Y1 29 ) Y3 )  ( <= ( + Y3 38 ) Y1 )  )
( or ( <= ( + X1 79 ) X4 )  ( <= ( + X4 9 ) X1 )  ( <= ( + Y1 29 ) Y4 )  ( <= ( + Y4 64 ) Y1 )  )
( or ( <= ( + X1 79 ) X5 )  ( <= ( + X5 24 ) X1 )  ( <= ( + Y1 29 ) Y5 )  ( <= ( + Y5 65 ) Y1 )  )
( or ( <= ( + X2 13 ) X3 )  ( <= ( + X3 91 ) X2 )  ( <= ( + Y2 95 ) Y3 )  ( <= ( + Y3 38 ) Y2 )  )
( or ( <= ( + X2 13 ) X4 )  ( <= ( + X4 9 ) X2 )  ( <= ( + Y2 95 ) Y4 )  ( <= ( + Y4 64 ) Y2 )  )
( or ( <= ( + X2 13 ) X5 )  ( <= ( + X5 24 ) X2 )  ( <= ( + Y2 95 ) Y5 )  ( <= ( + Y5 65 ) Y2 )  )
( or ( <= ( + X3 91 ) X4 )  ( <= ( + X4 9 ) X3 )  ( <= ( + Y3 38 ) Y4 )  ( <= ( + Y4 64 ) Y3 )  )
( or ( <= ( + X3 91 ) X5 )  ( <= ( + X5 24 ) X3 )  ( <= ( + Y3 38 ) Y5 )  ( <= ( + Y5 65 ) Y3 )  )
( or ( <= ( + X4 9 ) X5 )  ( <= ( + X5 24 ) X4 )  ( <= ( + Y4 64 ) Y5 )  ( <= ( + Y5 65 ) Y4 )  )
( >= X0 0)
( <= ( + X0 36) Z)
( >= Y0 0)
( <= ( + Y0 46 ) 122)
( >= X1 0)
( <= ( + X1 79) Z)
( >= Y1 0)
( <= ( + Y1 29 ) 122)
( >= X2 0)
( <= ( + X2 13) Z)
( >= Y2 0)
( <= ( + Y2 95 ) 122)
( >= X3 0)
( <= ( + X3 91) Z)
( >= Y3 0)
( <= ( + Y3 38 ) 122)
( >= X4 0)
( <= ( + X4 9) Z)
( >= Y4 0)
( <= ( + Y4 64 ) 122)
( >= X5 0)
( <= ( + X5 24) Z)
( >= Y5 0)
( <= ( + Y5 65 ) 122)
) )
)(=> $phi $goal))))